certificates/rado_a15_c290_N43.cnf
c Rad2 upper bound instance: x1 + 15*x2 - x3 = 290, interval [1,43]
p cnf 43 246
1 11 20 0
-1 -11 -20 0
1 21 26 0
-1 -21 -26 0
1 22 41 0
-1 -22 -41 0
2 12 20 0
-2 -12 -20 0
2 21 27 0
-2 -21 -27 0
2 22 42 0
-2 -22 -42 0
3 13 20 0
-3 -13 -20 0
3 21 28 0
-3 -21 -28 0
3 22 43 0
-3 -22 -43 0
4 14 20 0
-4 -14 -20 0
4 21 29 0
-4 -21 -29 0
5 15 20 0
-5 -15 -20 0
5 21 30 0
-5 -21 -30 0
1 6 19 0
-1 -6 -19 0
6 16 20 0
-6 -16 -20 0
6 21 31 0
-6 -21 -31 0
2 7 19 0
-2 -7 -19 0
7 17 20 0
-7 -17 -20 0
7 21 32 0
-7 -21 -32 0
3 8 19 0
-3 -8 -19 0
8 18 20 0
-8 -18 -20 0
8 21 33 0
-8 -21 -33 0
4 9 19 0
-4 -9 -19 0
9 19 20 0
-9 -19 -20 0
9 21 34 0
-9 -21 -34 0
5 10 19 0
-5 -10 -19 0
10 20 0
-10 -20 0
10 21 35 0
-10 -21 -35 0
6 11 19 0
-6 -11 -19 0
11 20 21 0
-11 -20 -21 0
11 21 36 0
-11 -21 -36 0
7 12 19 0
-7 -12 -19 0
12 20 22 0
-12 -20 -22 0
12 21 37 0
-12 -21 -37 0
8 13 19 0
-8 -13 -19 0
13 20 23 0
-13 -20 -23 0
13 21 38 0
-13 -21 -38 0
9 14 19 0
-9 -14 -19 0
14 20 24 0
-14 -20 -24 0
14 21 39 0
-14 -21 -39 0
10 15 19 0
-10 -15 -19 0
15 20 25 0
-15 -20 -25 0
15 21 40 0
-15 -21 -40 0
11 16 19 0
-11 -16 -19 0
16 20 26 0
-16 -20 -26 0
16 21 41 0
-16 -21 -41 0
12 17 19 0
-12 -17 -19 0
17 20 27 0
-17 -20 -27 0
17 21 42 0
-17 -21 -42 0
13 18 19 0
-13 -18 -19 0
18 20 28 0
-18 -20 -28 0
18 21 43 0
-18 -21 -43 0
14 19 0
-14 -19 0
19 20 29 0
-19 -20 -29 0
15 19 20 0
-15 -19 -20 0
20 30 0
-20 -30 0
1 18 21 0
-1 -18 -21 0
16 19 21 0
-16 -19 -21 0
20 21 31 0
-20 -21 -31 0
2 18 22 0
-2 -18 -22 0
17 19 22 0
-17 -19 -22 0
20 22 32 0
-20 -22 -32 0
3 18 23 0
-3 -18 -23 0
18 19 23 0
-18 -19 -23 0
20 23 33 0
-20 -23 -33 0
4 18 24 0
-4 -18 -24 0
19 24 0
-19 -24 0
20 24 34 0
-20 -24 -34 0
5 18 25 0
-5 -18 -25 0
19 20 25 0
-19 -20 -25 0
20 25 35 0
-20 -25 -35 0
6 18 26 0
-6 -18 -26 0
19 21 26 0
-19 -21 -26 0
20 26 36 0
-20 -26 -36 0
7 18 27 0
-7 -18 -27 0
19 22 27 0
-19 -22 -27 0
20 27 37 0
-20 -27 -37 0
8 18 28 0
-8 -18 -28 0
19 23 28 0
-19 -23 -28 0
20 28 38 0
-20 -28 -38 0
9 18 29 0
-9 -18 -29 0
19 24 29 0
-19 -24 -29 0
20 29 39 0
-20 -29 -39 0
10 18 30 0
-10 -18 -30 0
19 25 30 0
-19 -25 -30 0
20 30 40 0
-20 -30 -40 0
11 18 31 0
-11 -18 -31 0
19 26 31 0
-19 -26 -31 0
20 31 41 0
-20 -31 -41 0
12 18 32 0
-12 -18 -32 0
19 27 32 0
-19 -27 -32 0
20 32 42 0
-20 -32 -42 0
13 18 33 0
-13 -18 -33 0
19 28 33 0
-19 -28 -33 0
20 33 43 0
-20 -33 -43 0
14 18 34 0
-14 -18 -34 0
19 29 34 0
-19 -29 -34 0
15 18 35 0
-15 -18 -35 0
19 30 35 0
-19 -30 -35 0
1 17 36 0
-1 -17 -36 0
16 18 36 0
-16 -18 -36 0
19 31 36 0
-19 -31 -36 0
2 17 37 0
-2 -17 -37 0
17 18 37 0
-17 -18 -37 0
19 32 37 0
-19 -32 -37 0
3 17 38 0
-3 -17 -38 0
18 38 0
-18 -38 0
19 33 38 0
-19 -33 -38 0
4 17 39 0
-4 -17 -39 0
18 19 39 0
-18 -19 -39 0
19 34 39 0
-19 -34 -39 0
5 17 40 0
-5 -17 -40 0
18 20 40 0
-18 -20 -40 0
19 35 40 0
-19 -35 -40 0
6 17 41 0
-6 -17 -41 0
18 21 41 0
-18 -21 -41 0
19 36 41 0
-19 -36 -41 0
7 17 42 0
-7 -17 -42 0
18 22 42 0
-18 -22 -42 0
19 37 42 0
-19 -37 -42 0
8 17 43 0
-8 -17 -43 0
18 23 43 0
-18 -23 -43 0
19 38 43 0
-19 -38 -43 0
