certificates/rado_a15_c290_N43.drat
-38 -41 -43 0
20 23 -18 0
38 -43 0
-43 0
-38 0
18 0
19 0
-14 0
-24 0
-39 0
-13 0
-23 0
20 0
21 0
-10 0
-30 0
-8 0
-28 0
-40 0
-11 0
-31 0
-29 0
-25 0
-9 0
-15 0
-41 0
-1 0
-26 0
-16 0
17 0
22 0
-7 0
-12 0
-27 0
-42 0
0
